n = 42;
w_ij = [1, 37, 19, 49, 27, 6, 46, 13, 10, 6, 27, 37, 27, 44, 24, 12, 2, 46, 29, 32, 19, 18, 19, 27, 23, 10, 50, 5, 22, 10, 50, 35, 22, 9, 41, 2, 32, 13, 27, 50, 39, 34];
d_ij = [27, 14, 10, 26, 13, 41, 23, 13, 17, 41, 43, 4, 7, 24, 23, 1, 50, 40, 39, 18, 14, 33, 3, 8, 17, 4, 28, 50, 36, 28, 10, 20, 38, 41, 5, 7, 20, 26, 6, 18, 14, 46];